32      3       
19      18      19      
0       0       0       0       3       2       3       4       
5       2       0       0       2       8       10      
9       7       0       10      3       5       11      14      
6       0       2       0       1       24      
10      0       8       0       3       6       7       9       
5       0       0       9       1       15      
5       5       9       2       2       21      27      
3       0       4       8       2       9       30      
7       7       9       0       2       12      23      
2       9       0       0       2       16      25      
9       10      7       0       2       13      17      
7       0       9       8       1       31      
8       0       4       3       1       30      
4       0       8       0       2       19      20      
2       0       9       5       1       28      
10      2       0       10      2       21      22      
9       5       0       0       1       18      
2       0       0       1       1       28      
5       4       0       0       1       25      
7       0       0       5       1       26      
10      7       0       5       1       23      
10      2       4       0       2       26      30      
5       0       7       2       2       29      31      
3       0       2       0       1       29      
5       9       0       0       1       27      
6       0       3       1       2       27      28      
3       9       0       10      1       31      
7       0       10      0       1       29      
4       8       0       0       1       32      
4       0       2       5       1       32      
6       2       0       0       1       32      
0       0       0       0       0       